p wcnf 176 352 353 
1 -102 -75 0 
1 24 -75 0 
1 152 -96 0 
1 -66 -31 0 
1 104 -161 0 
1 -174 135 0 
1 90 -86 0 
1 -89 -139 0 
1 175 126 0 
1 106 -114 0 
1 61 40 0 
1 148 -131 0 
1 -72 54 0 
1 -169 165 0 
1 12 -41 0 
1 135 148 0 
1 36 -110 0 
1 92 -25 0 
1 35 66 0 
1 138 144 0 
1 167 -129 0 
1 -174 66 0 
1 106 -58 0 
1 -116 -103 0 
1 -12 -26 0 
1 -113 -15 0 
1 -20 91 0 
1 -110 55 0 
1 -88 39 0 
1 131 167 0 
1 5 -67 0 
1 -20 110 0 
1 42 119 0 
1 117 -102 0 
1 154 156 0 
1 -71 69 0 
1 154 -43 0 
1 -36 102 0 
1 -79 111 0 
1 -55 120 0 
1 102 148 0 
1 -41 163 0 
1 -84 40 0 
1 173 -115 0 
1 2 175 0 
1 -2 -125 0 
1 -126 -175 0 
1 168 106 0 
1 -31 -146 0 
1 62 -27 0 
1 -47 153 0 
1 -13 -7 0 
1 29 -98 0 
1 90 -174 0 
1 -100 91 0 
1 -102 -127 0 
1 66 100 0 
1 43 -75 0 
1 -11 81 0 
1 175 118 0 
1 -93 -41 0 
1 -82 -92 0 
1 -113 107 0 
1 45 -124 0 
1 57 -94 0 
1 -2 -6 0 
1 5 -87 0 
1 65 -25 0 
1 4 -153 0 
1 27 46 0 
1 -7 -3 0 
1 151 -33 0 
1 -174 -63 0 
1 108 87 0 
1 -83 -120 0 
1 -69 -61 0 
1 -35 138 0 
1 -62 81 0 
1 14 -176 0 
1 122 68 0 
1 -61 -115 0 
1 -1 70 0 
1 78 -131 0 
1 76 70 0 
1 -19 -149 0 
1 -97 -91 0 
1 -125 -50 0 
1 -80 -91 0 
1 -63 -126 0 
1 168 162 0 
1 161 -45 0 
1 -161 -20 0 
1 70 -122 0 
1 96 127 0 
1 173 2 0 
1 -158 -36 0 
1 -176 -31 0 
1 28 63 0 
1 9 -43 0 
1 -130 82 0 
1 109 -27 0 
1 110 -5 0 
1 -34 40 0 
1 -125 -149 0 
1 -83 -20 0 
1 171 144 0 
1 -70 116 0 
1 -49 -122 0 
1 82 -149 0 
1 -10 66 0 
1 92 143 0 
1 -86 19 0 
1 57 -145 0 
1 23 83 0 
1 59 -16 0 
1 146 -99 0 
1 -25 -70 0 
1 29 -28 0 
1 161 169 0 
1 167 150 0 
1 138 -153 0 
1 85 172 0 
1 117 134 0 
1 -174 35 0 
1 14 -17 0 
1 -36 -175 0 
1 27 -56 0 
1 -173 -86 0 
1 -5 87 0 
1 175 54 0 
1 17 -101 0 
1 43 110 0 
1 63 -15 0 
1 -120 -70 0 
1 40 31 0 
1 -174 84 0 
1 40 155 0 
1 -15 10 0 
1 -167 63 0 
1 -154 -86 0 
1 -39 -38 0 
1 174 60 0 
1 -91 -32 0 
1 110 155 0 
1 26 84 0 
1 -57 89 0 
1 -143 -95 0 
1 26 100 0 
1 160 131 0 
1 139 -5 0 
1 25 -140 0 
1 -88 108 0 
1 173 133 0 
1 -39 46 0 
1 16 100 0 
1 -44 -81 0 
1 128 99 0 
1 -28 -112 0 
1 -72 35 0 
1 -120 -67 0 
1 -94 84 0 
1 4 -128 0 
1 2 -87 0 
1 -63 -110 0 
1 13 149 0 
1 -138 106 0 
1 -85 54 0 
1 -165 -29 0 
1 99 -56 0 
1 49 11 0 
1 -12 139 0 
1 -66 38 0 
1 79 -124 0 
1 -1 -121 0 
1 145 24 0 
1 -46 81 0 
1 -137 -70 0 
1 53 160 0 
1 130 -124 0 
1 22 -8 0 
1 88 -60 0 
1 -32 143 0 
1 -29 164 0 
1 93 138 0 
1 34 -152 0 
1 166 -135 0 
1 9 127 0 
1 26 172 0 
1 -10 -93 0 
1 79 105 0 
1 52 49 0 
1 -27 -36 0 
1 -150 6 0 
1 151 -154 0 
1 -100 -33 0 
1 -157 11 0 
1 47 -155 0 
1 -116 11 0 
1 137 -82 0 
1 22 56 0 
1 66 54 0 
1 -148 -51 0 
1 141 -163 0 
1 -148 -101 0 
1 -15 68 0 
1 -118 169 0 
1 176 47 0 
1 85 117 0 
1 49 -9 0 
1 -175 165 0 
1 141 140 0 
1 54 -80 0 
1 -90 157 0 
1 -127 54 0 
1 -81 161 0 
1 65 -33 0 
1 175 -78 0 
1 -58 39 0 
1 -87 -29 0 
1 58 146 0 
1 -173 143 0 
1 -148 -150 0 
1 64 119 0 
1 78 -172 0 
1 3 -28 0 
1 -11 -167 0 
1 115 -102 0 
1 6 -31 0 
1 94 113 0 
1 -169 26 0 
1 -174 78 0 
1 -48 -156 0 
1 -17 -91 0 
1 34 167 0 
1 -160 -124 0 
1 -167 29 0 
1 -135 -89 0 
1 -171 -61 0 
1 -61 -109 0 
1 -59 67 0 
1 44 16 0 
1 -169 -51 0 
1 61 64 0 
1 -32 -170 0 
1 -145 91 0 
1 -86 139 0 
1 -28 41 0 
1 -80 73 0 
1 164 -113 0 
1 -112 40 0 
1 -77 -98 0 
1 -87 150 0 
1 1 29 0 
1 -81 94 0 
1 146 112 0 
1 80 -39 0 
1 130 172 0 
1 -175 118 0 
1 -81 -164 0 
1 20 173 0 
1 67 -40 0 
1 113 68 0 
1 149 99 0 
1 -15 50 0 
1 -168 169 0 
1 126 -33 0 
1 -73 -93 0 
1 -102 50 0 
1 167 -12 0 
1 -53 -133 0 
1 -131 13 0 
1 148 83 0 
1 -136 49 0 
1 -105 77 0 
1 161 16 0 
1 -164 90 0 
1 -147 -105 0 
1 110 175 0 
1 -14 38 0 
1 4 130 0 
1 164 8 0 
1 64 139 0 
1 112 6 0 
1 -72 162 0 
1 108 14 0 
1 -129 37 0 
1 116 -73 0 
1 -16 153 0 
1 13 -28 0 
1 154 -108 0 
1 -61 85 0 
1 -166 -100 0 
1 -65 -67 0 
1 119 105 0 
1 43 -67 0 
1 -93 -58 0 
1 132 148 0 
1 -110 65 0 
1 16 87 0 
1 -132 157 0 
1 -144 -123 0 
1 -45 84 0 
1 108 18 0 
1 -69 -107 0 
1 172 155 0 
1 31 -20 0 
1 -127 109 0 
1 59 -136 0 
1 140 75 0 
1 91 -66 0 
1 -21 -91 0 
1 42 -44 0 
1 79 -13 0 
1 48 -82 0 
1 172 -51 0 
1 -12 91 0 
1 41 91 0 
1 -71 -48 0 
1 116 -149 0 
1 140 71 0 
1 57 -114 0 
1 -144 145 0 
1 -45 -23 0 
1 -37 -166 0 
1 -127 83 0 
1 134 159 0 
1 -139 134 0 
1 -167 -86 0 
1 117 40 0 
1 -160 62 0 
1 -161 -82 0 
1 58 -69 0 
1 45 106 0 
1 159 87 0 
1 165 -44 0 
1 126 82 0 
1 126 -72 0 
1 11 -152 0 
1 -104 129 0 
1 -80 60 0 
1 81 -157 0 
1 -84 114 0 
1 -76 -20 0 
1 82 54 0 
1 21 -71 0 
1 147 -109 0 
1 79 55 0 
1 -124 145 0 
1 18 -89 0 
1 73 -165 0 
1 130 -55 0 
1 104 -90 0 
